c *********************************
c * Circuit generated by BenCGen
c *
c * Encoder_16_4
c *
c * Ports with 1 gate(s): 17
c * Ports with 2 gate(s): 1
c * Ports with 8 gate(s): 4
c * Total gates: 22
c *********************************
p cnf 38 73
1 22 0
-1 -22 0
1 -21 0
22 -21 0
-1 -22 21 0
1 23 0
-1 -23 0
2 24 0
-2 -24 0
3 25 0
-3 -25 0
4 26 0
-4 -26 0
5 27 0
-5 -27 0
6 28 0
-6 -28 0
7 29 0
-7 -29 0
8 30 0
-8 -30 0
9 31 0
-9 -31 0
10 32 0
-10 -32 0
11 33 0
-11 -33 0
12 34 0
-12 -34 0
13 35 0
-13 -35 0
14 36 0
-14 -36 0
15 37 0
-15 -37 0
16 38 0
-16 -38 0
-2 17 0
-4 17 0
-6 17 0
-8 17 0
-10 17 0
-12 17 0
-14 17 0
-16 17 0
2 4 6 8 10 12 14 16 -17 0
-3 18 0
-4 18 0
-7 18 0
-8 18 0
-11 18 0
-12 18 0
-15 18 0
-16 18 0
3 4 7 8 11 12 15 16 -18 0
-5 19 0
-6 19 0
-7 19 0
-8 19 0
-13 19 0
-14 19 0
-15 19 0
-16 19 0
5 6 7 8 13 14 15 16 -19 0
-9 20 0
-10 20 0
-11 20 0
-12 20 0
-13 20 0
-14 20 0
-15 20 0
-16 20 0
9 10 11 12 13 14 15 16 -20 0
